p cnf 430 1488
-191 141 0
-191 113 0
-191 -34 0
-191 -15 0
-191 -149 0
191 -141 -113 34 15 149 0
-192 -19 0
-192 172 0
-192 -174 0
-192 53 0
-192 38 0
192 19 -172 174 -53 -38 0
-193 -81 0
-193 181 0
-193 -169 0
-193 40 0
-193 -15 0
193 81 -181 169 -40 15 0
-194 64 0
-194 -21 0
-194 67 0
-194 91 0
-194 -147 0
194 -64 21 -67 -91 147 0
-195 -63 0
-195 -96 0
-195 93 0
-195 -156 0
-195 -149 0
195 63 96 -93 156 149 0
191 192 193 194 195 0
-196 120 0
-196 176 0
-196 93 0
-196 -66 0
-196 -185 0
196 -120 -176 -93 66 185 0
-197 147 0
-197 149 0
-197 -73 0
-197 -8 0
-197 -124 0
197 -147 -149 73 8 124 0
-198 -142 0
-198 25 0
-198 -30 0
-198 103 0
-198 6 0
198 142 -25 30 -103 -6 0
-199 -135 0
-199 164 0
-199 -140 0
-199 95 0
-199 -49 0
199 135 -164 140 -95 49 0
-200 120 0
-200 -128 0
-200 89 0
-200 -60 0
-200 165 0
200 -120 128 -89 60 -165 0
196 197 198 199 200 0
-201 141 0
-201 125 0
-201 -166 0
-201 49 0
-201 110 0
201 -141 -125 166 -49 -110 0
-202 75 0
-202 129 0
-202 34 0
-202 3 0
-202 -97 0
202 -75 -129 -34 -3 97 0
-203 35 0
-203 -69 0
-203 -152 0
-203 100 0
-203 -13 0
203 -35 69 152 -100 13 0
-204 -2 0
-204 -78 0
-204 108 0
-204 -60 0
-204 -71 0
204 2 78 -108 60 71 0
-205 88 0
-205 -121 0
-205 -3 0
-205 58 0
-205 29 0
205 -88 121 3 -58 -29 0
201 202 203 204 205 0
-206 -141 0
-206 71 0
-206 -145 0
-206 -82 0
-206 -70 0
206 141 -71 145 82 70 0
-207 -79 0
-207 -93 0
-207 147 0
-207 182 0
-207 -174 0
207 79 93 -147 -182 174 0
-208 42 0
-208 21 0
-208 6 0
-208 -26 0
-208 -64 0
208 -42 -21 -6 26 64 0
-209 -60 0
-209 -120 0
-209 -170 0
-209 118 0
-209 57 0
209 60 120 170 -118 -57 0
-210 -53 0
-210 -18 0
-210 51 0
-210 -63 0
-210 -16 0
210 53 18 -51 63 16 0
206 207 208 209 210 0
-211 -164 0
-211 -74 0
-211 178 0
-211 83 0
-211 -1 0
211 164 74 -178 -83 1 0
-212 82 0
-212 -50 0
-212 104 0
-212 38 0
-212 76 0
212 -82 50 -104 -38 -76 0
-213 -71 0
-213 95 0
-213 -23 0
-213 153 0
-213 20 0
213 71 -95 23 -153 -20 0
-214 139 0
-214 -84 0
-214 -145 0
-214 -68 0
-214 111 0
214 -139 84 145 68 -111 0
-215 -180 0
-215 171 0
-215 -187 0
-215 -40 0
-215 -127 0
215 180 -171 187 40 127 0
211 212 213 214 215 0
-216 60 0
-216 -184 0
-216 72 0
-216 -105 0
-216 -123 0
216 -60 184 -72 105 123 0
-217 -103 0
-217 53 0
-217 81 0
-217 -12 0
-217 -179 0
217 103 -53 -81 12 179 0
-218 -170 0
-218 -167 0
-218 56 0
-218 36 0
-218 90 0
218 170 167 -56 -36 -90 0
-219 -131 0
-219 53 0
-219 -1 0
-219 -59 0
-219 -112 0
219 131 -53 1 59 112 0
-220 -21 0
-220 171 0
-220 187 0
-220 -109 0
-220 37 0
220 21 -171 -187 109 -37 0
216 217 218 219 220 0
-221 162 0
-221 105 0
-221 117 0
-221 -177 0
-221 -48 0
221 -162 -105 -117 177 48 0
-222 121 0
-222 72 0
-222 -33 0
-222 132 0
-222 53 0
222 -121 -72 33 -132 -53 0
-223 -185 0
-223 -4 0
-223 181 0
-223 17 0
-223 -3 0
223 185 4 -181 -17 3 0
-224 -189 0
-224 -75 0
-224 -88 0
-224 7 0
-224 -124 0
224 189 75 88 -7 124 0
-225 -14 0
-225 161 0
-225 35 0
-225 19 0
-225 86 0
225 14 -161 -35 -19 -86 0
221 222 223 224 225 0
-226 -167 0
-226 110 0
-226 -113 0
-226 -36 0
-226 183 0
226 167 -110 113 36 -183 0
-227 131 0
-227 -24 0
-227 75 0
-227 138 0
-227 -38 0
227 -131 24 -75 -138 38 0
-228 -127 0
-228 107 0
-228 8 0
-228 90 0
-228 1 0
228 127 -107 -8 -90 -1 0
-229 129 0
-229 -18 0
-229 -100 0
-229 3 0
-229 -70 0
229 -129 18 100 -3 70 0
-230 -79 0
-230 -24 0
-230 -110 0
-230 33 0
-230 85 0
230 79 24 110 -33 -85 0
226 227 228 229 230 0
-231 142 0
-231 -130 0
-231 114 0
-231 124 0
-231 44 0
231 -142 130 -114 -124 -44 0
-232 15 0
-232 -133 0
-232 -190 0
-232 111 0
-232 -144 0
232 -15 133 190 -111 144 0
-233 158 0
-233 -138 0
-233 -123 0
-233 25 0
-233 69 0
233 -158 138 123 -25 -69 0
-234 61 0
-234 6 0
-234 137 0
-234 165 0
-234 13 0
234 -61 -6 -137 -165 -13 0
-235 -75 0
-235 -47 0
-235 -128 0
-235 90 0
-235 -151 0
235 75 47 128 -90 151 0
231 232 233 234 235 0
-236 53 0
-236 -135 0
-236 133 0
-236 67 0
-236 -49 0
236 -53 135 -133 -67 49 0
-237 105 0
-237 130 0
-237 129 0
-237 -150 0
-237 126 0
237 -105 -130 -129 150 -126 0
-238 108 0
-238 83 0
-238 124 0
-238 160 0
-238 -65 0
238 -108 -83 -124 -160 65 0
-239 84 0
-239 63 0
-239 -138 0
-239 49 0
-239 36 0
239 -84 -63 138 -49 -36 0
-240 -29 0
-240 -165 0
-240 -166 0
-240 -144 0
-240 -189 0
240 29 165 166 144 189 0
236 237 238 239 240 0
-241 96 0
-241 -10 0
-241 5 0
-241 -63 0
-241 -107 0
241 -96 10 -5 63 107 0
-242 168 0
-242 -7 0
-242 -50 0
-242 89 0
-242 59 0
242 -168 7 50 -89 -59 0
-243 164 0
-243 31 0
-243 -171 0
-243 119 0
-243 4 0
243 -164 -31 171 -119 -4 0
-244 27 0
-244 -164 0
-244 163 0
-244 51 0
-244 60 0
244 -27 164 -163 -51 -60 0
-245 -51 0
-245 136 0
-245 7 0
-245 -32 0
-245 -17 0
245 51 -136 -7 32 17 0
241 242 243 244 245 0
-246 33 0
-246 34 0
-246 142 0
-246 137 0
-246 -151 0
246 -33 -34 -142 -137 151 0
-247 -45 0
-247 -114 0
-247 -19 0
-247 123 0
-247 98 0
247 45 114 19 -123 -98 0
-248 -176 0
-248 92 0
-248 -81 0
-248 51 0
-248 -22 0
248 176 -92 81 -51 22 0
-249 123 0
-249 -171 0
-249 -30 0
-249 118 0
-249 -99 0
249 -123 171 30 -118 99 0
-250 -25 0
-250 -66 0
-250 130 0
-250 30 0
-250 -172 0
250 25 66 -130 -30 172 0
246 247 248 249 250 0
-251 -45 0
-251 -167 0
-251 60 0
-251 48 0
-251 180 0
251 45 167 -60 -48 -180 0
-252 109 0
-252 -141 0
-252 174 0
-252 -13 0
-252 177 0
252 -109 141 -174 13 -177 0
-253 -97 0
-253 -185 0
-253 70 0
-253 -172 0
-253 -15 0
253 97 185 -70 172 15 0
-254 60 0
-254 -127 0
-254 186 0
-254 -21 0
-254 -36 0
254 -60 127 -186 21 36 0
-255 111 0
-255 173 0
-255 116 0
-255 -97 0
-255 -174 0
255 -111 -173 -116 97 174 0
251 252 253 254 255 0
-256 108 0
-256 -186 0
-256 -158 0
-256 -142 0
-256 -130 0
256 -108 186 158 142 130 0
-257 -75 0
-257 69 0
-257 -13 0
-257 -9 0
-257 29 0
257 75 -69 13 9 -29 0
-258 49 0
-258 -159 0
-258 154 0
-258 -107 0
-258 116 0
258 -49 159 -154 107 -116 0
-259 -188 0
-259 -114 0
-259 -166 0
-259 109 0
-259 145 0
259 188 114 166 -109 -145 0
-260 159 0
-260 76 0
-260 27 0
-260 -120 0
-260 -124 0
260 -159 -76 -27 120 124 0
256 257 258 259 260 0
-261 -57 0
-261 146 0
-261 -140 0
-261 131 0
-261 16 0
261 57 -146 140 -131 -16 0
-262 -157 0
-262 9 0
-262 -65 0
-262 -30 0
-262 4 0
262 157 -9 65 30 -4 0
-263 42 0
-263 177 0
-263 -115 0
-263 -37 0
-263 25 0
263 -42 -177 115 37 -25 0
-264 128 0
-264 44 0
-264 155 0
-264 117 0
-264 -12 0
264 -128 -44 -155 -117 12 0
-265 22 0
-265 -77 0
-265 -167 0
-265 129 0
-265 40 0
265 -22 77 167 -129 -40 0
261 262 263 264 265 0
-266 94 0
-266 -89 0
-266 186 0
-266 -120 0
-266 55 0
266 -94 89 -186 120 -55 0
-267 -118 0
-267 -10 0
-267 -26 0
-267 69 0
-267 122 0
267 118 10 26 -69 -122 0
-268 146 0
-268 97 0
-268 167 0
-268 -185 0
-268 -64 0
268 -146 -97 -167 185 64 0
-269 162 0
-269 -1 0
-269 178 0
-269 -71 0
-269 -74 0
269 -162 1 -178 71 74 0
-270 -120 0
-270 164 0
-270 -154 0
-270 -180 0
-270 -165 0
270 120 -164 154 180 165 0
266 267 268 269 270 0
-271 160 0
-271 64 0
-271 45 0
-271 5 0
-271 158 0
271 -160 -64 -45 -5 -158 0
-272 -91 0
-272 -3 0
-272 59 0
-272 108 0
-272 -62 0
272 91 3 -59 -108 62 0
-273 -187 0
-273 161 0
-273 -79 0
-273 -176 0
-273 -85 0
273 187 -161 79 176 85 0
-274 31 0
-274 -79 0
-274 131 0
-274 -30 0
-274 -34 0
274 -31 79 -131 30 34 0
-275 119 0
-275 -169 0
-275 -21 0
-275 -175 0
-275 172 0
275 -119 169 21 175 -172 0
271 272 273 274 275 0
-276 -120 0
-276 18 0
-276 -2 0
-276 -144 0
-276 -27 0
276 120 -18 2 144 27 0
-277 149 0
-277 -6 0
-277 52 0
-277 124 0
-277 64 0
277 -149 6 -52 -124 -64 0
-278 -13 0
-278 -126 0
-278 119 0
-278 25 0
-278 152 0
278 13 126 -119 -25 -152 0
-279 102 0
-279 -48 0
-279 39 0
-279 -50 0
-279 -179 0
279 -102 48 -39 50 179 0
-280 38 0
-280 -44 0
-280 -173 0
-280 144 0
-280 -167 0
280 -38 44 173 -144 167 0
276 277 278 279 280 0
-281 20 0
-281 -109 0
-281 41 0
-281 -25 0
-281 -6 0
281 -20 109 -41 25 6 0
-282 102 0
-282 -115 0
-282 -151 0
-282 -43 0
-282 6 0
282 -102 115 151 43 -6 0
-283 136 0
-283 -90 0
-283 -95 0
-283 86 0
-283 10 0
283 -136 90 95 -86 -10 0
-284 -127 0
-284 -164 0
-284 -20 0
-284 -165 0
-284 -155 0
284 127 164 20 165 155 0
-285 -92 0
-285 66 0
-285 -124 0
-285 -136 0
-285 -55 0
285 92 -66 124 136 55 0
281 282 283 284 285 0
-286 -20 0
-286 136 0
-286 53 0
-286 9 0
-286 100 0
286 20 -136 -53 -9 -100 0
-287 -67 0
-287 -36 0
-287 7 0
-287 -135 0
-287 -130 0
287 67 36 -7 135 130 0
-288 65 0
-288 111 0
-288 -177 0
-288 63 0
-288 -103 0
288 -65 -111 177 -63 103 0
-289 -123 0
-289 -139 0
-289 49 0
-289 3 0
-289 -59 0
289 123 139 -49 -3 59 0
-290 171 0
-290 156 0
-290 128 0
-290 52 0
-290 43 0
290 -171 -156 -128 -52 -43 0
286 287 288 289 290 0
-291 -16 0
-291 -1 0
-291 124 0
-291 -166 0
-291 19 0
291 16 1 -124 166 -19 0
-292 63 0
-292 122 0
-292 41 0
-292 -32 0
-292 62 0
292 -63 -122 -41 32 -62 0
-293 -78 0
-293 168 0
-293 37 0
-293 75 0
-293 85 0
293 78 -168 -37 -75 -85 0
-294 -61 0
-294 43 0
-294 -83 0
-294 -154 0
-294 -102 0
294 61 -43 83 154 102 0
-295 -113 0
-295 -76 0
-295 71 0
-295 77 0
-295 -9 0
295 113 76 -71 -77 9 0
291 292 293 294 295 0
-296 -4 0
-296 86 0
-296 148 0
-296 100 0
-296 27 0
296 4 -86 -148 -100 -27 0
-297 -134 0
-297 170 0
-297 166 0
-297 165 0
-297 97 0
297 134 -170 -166 -165 -97 0
-298 146 0
-298 120 0
-298 94 0
-298 -154 0
-298 49 0
298 -146 -120 -94 154 -49 0
-299 54 0
-299 189 0
-299 131 0
-299 182 0
-299 -89 0
299 -54 -189 -131 -182 89 0
-300 47 0
-300 54 0
-300 67 0
-300 66 0
-300 -171 0
300 -47 -54 -67 -66 171 0
296 297 298 299 300 0
-301 -154 0
-301 -96 0
-301 153 0
-301 15 0
-301 -83 0
301 154 96 -153 -15 83 0
-302 10 0
-302 136 0
-302 -75 0
-302 66 0
-302 44 0
302 -10 -136 75 -66 -44 0
-303 35 0
-303 -39 0
-303 -162 0
-303 179 0
-303 81 0
303 -35 39 162 -179 -81 0
-304 65 0
-304 105 0
-304 -128 0
-304 -87 0
-304 168 0
304 -65 -105 128 87 -168 0
-305 -17 0
-305 -178 0
-305 -87 0
-305 68 0
-305 139 0
305 17 178 87 -68 -139 0
301 302 303 304 305 0
-306 -79 0
-306 -65 0
-306 66 0
-306 37 0
-306 147 0
306 79 65 -66 -37 -147 0
-307 -69 0
-307 71 0
-307 -98 0
-307 -179 0
-307 -151 0
307 69 -71 98 179 151 0
-308 81 0
-308 27 0
-308 147 0
-308 136 0
-308 -167 0
308 -81 -27 -147 -136 167 0
-309 15 0
-309 111 0
-309 25 0
-309 16 0
-309 -1 0
309 -15 -111 -25 -16 1 0
-310 -1 0
-310 49 0
-310 183 0
-310 -137 0
-310 82 0
310 1 -49 -183 137 -82 0
306 307 308 309 310 0
-311 -28 0
-311 -115 0
-311 91 0
-311 34 0
-311 1 0
311 28 115 -91 -34 -1 0
-312 157 0
-312 13 0
-312 117 0
-312 172 0
-312 52 0
312 -157 -13 -117 -172 -52 0
-313 -60 0
-313 130 0
-313 36 0
-313 11 0
-313 -148 0
313 60 -130 -36 -11 148 0
-314 -112 0
-314 -17 0
-314 108 0
-314 58 0
-314 -90 0
314 112 17 -108 -58 90 0
-315 52 0
-315 118 0
-315 49 0
-315 190 0
-315 188 0
315 -52 -118 -49 -190 -188 0
311 312 313 314 315 0
-316 -96 0
-316 -37 0
-316 -152 0
-316 -14 0
-316 94 0
316 96 37 152 14 -94 0
-317 13 0
-317 -103 0
-317 -16 0
-317 29 0
-317 23 0
317 -13 103 16 -29 -23 0
-318 172 0
-318 166 0
-318 -177 0
-318 96 0
-318 -29 0
318 -172 -166 177 -96 29 0
-319 -157 0
-319 -125 0
-319 101 0
-319 74 0
-319 -77 0
319 157 125 -101 -74 77 0
-320 -130 0
-320 -41 0
-320 62 0
-320 -186 0
-320 -36 0
320 130 41 -62 186 36 0
316 317 318 319 320 0
-321 -54 0
-321 -95 0
-321 -88 0
-321 -28 0
-321 160 0
321 54 95 88 28 -160 0
-322 51 0
-322 106 0
-322 -166 0
-322 102 0
-322 -78 0
322 -51 -106 166 -102 78 0
-323 -21 0
-323 190 0
-323 -187 0
-323 64 0
-323 -119 0
323 21 -190 187 -64 119 0
-324 -49 0
-324 -97 0
-324 181 0
-324 66 0
-324 -70 0
324 49 97 -181 -66 70 0
-325 188 0
-325 26 0
-325 167 0
-325 27 0
-325 -6 0
325 -188 -26 -167 -27 6 0
321 322 323 324 325 0
-326 45 0
-326 -61 0
-326 -15 0
-326 -5 0
-326 40 0
326 -45 61 15 5 -40 0
-327 157 0
-327 -84 0
-327 99 0
-327 -16 0
-327 14 0
327 -157 84 -99 16 -14 0
-328 -23 0
-328 -121 0
-328 -150 0
-328 -29 0
-328 88 0
328 23 121 150 29 -88 0
-329 -121 0
-329 -52 0
-329 -158 0
-329 -129 0
-329 3 0
329 121 52 158 129 -3 0
-330 -20 0
-330 -55 0
-330 -95 0
-330 131 0
-330 37 0
330 20 55 95 -131 -37 0
326 327 328 329 330 0
-331 -111 0
-331 16 0
-331 91 0
-331 78 0
-331 -98 0
331 111 -16 -91 -78 98 0
-332 115 0
-332 -81 0
-332 168 0
-332 160 0
-332 79 0
332 -115 81 -168 -160 -79 0
-333 -119 0
-333 -134 0
-333 -95 0
-333 178 0
-333 -151 0
333 119 134 95 -178 151 0
-334 -135 0
-334 137 0
-334 21 0
-334 82 0
-334 174 0
334 135 -137 -21 -82 -174 0
-335 -130 0
-335 -66 0
-335 -24 0
-335 -40 0
-335 -5 0
335 130 66 24 40 5 0
331 332 333 334 335 0
-336 142 0
-336 65 0
-336 -29 0
-336 36 0
-336 -7 0
336 -142 -65 29 -36 7 0
-337 44 0
-337 105 0
-337 -3 0
-337 -30 0
-337 123 0
337 -44 -105 3 30 -123 0
-338 -136 0
-338 -122 0
-338 175 0
-338 185 0
-338 93 0
338 136 122 -175 -185 -93 0
-339 -44 0
-339 -22 0
-339 -139 0
-339 165 0
-339 3 0
339 44 22 139 -165 -3 0
-340 -176 0
-340 -82 0
-340 -73 0
-340 -19 0
-340 -113 0
340 176 82 73 19 113 0
336 337 338 339 340 0
-341 147 0
-341 -61 0
-341 -133 0
-341 154 0
-341 59 0
341 -147 61 133 -154 -59 0
-342 130 0
-342 34 0
-342 -101 0
-342 -80 0
-342 -18 0
342 -130 -34 101 80 18 0
-343 -90 0
-343 181 0
-343 -125 0
-343 94 0
-343 37 0
343 90 -181 125 -94 -37 0
-344 182 0
-344 -74 0
-344 -13 0
-344 67 0
-344 82 0
344 -182 74 13 -67 -82 0
-345 -163 0
-345 122 0
-345 37 0
-345 131 0
-345 33 0
345 163 -122 -37 -131 -33 0
341 342 343 344 345 0
-346 -178 0
-346 -60 0
-346 83 0
-346 93 0
-346 -162 0
346 178 60 -83 -93 162 0
-347 4 0
-347 -188 0
-347 -105 0
-347 -103 0
-347 -136 0
347 -4 188 105 103 136 0
-348 124 0
-348 -53 0
-348 46 0
-348 -87 0
-348 60 0
348 -124 53 -46 87 -60 0
-349 -76 0
-349 46 0
-349 79 0
-349 -142 0
-349 -9 0
349 76 -46 -79 142 9 0
-350 52 0
-350 -22 0
-350 -83 0
-350 -47 0
-350 143 0
350 -52 22 83 47 -143 0
346 347 348 349 350 0
-351 176 0
-351 -150 0
-351 118 0
-351 -177 0
-351 187 0
351 -176 150 -118 177 -187 0
-352 -153 0
-352 130 0
-352 -6 0
-352 -31 0
-352 -136 0
352 153 -130 6 31 136 0
-353 -50 0
-353 -49 0
-353 126 0
-353 -79 0
-353 -87 0
353 50 49 -126 79 87 0
-354 -2 0
-354 -19 0
-354 -150 0
-354 -5 0
-354 -42 0
354 2 19 150 5 42 0
-355 88 0
-355 -101 0
-355 38 0
-355 76 0
-355 -181 0
355 -88 101 -38 -76 181 0
351 352 353 354 355 0
-356 146 0
-356 7 0
-356 47 0
-356 -17 0
-356 -97 0
356 -146 -7 -47 17 97 0
-357 11 0
-357 69 0
-357 -57 0
-357 50 0
-357 -55 0
357 -11 -69 57 -50 55 0
-358 50 0
-358 -70 0
-358 -20 0
-358 178 0
-358 -154 0
358 -50 70 20 -178 154 0
-359 -54 0
-359 81 0
-359 121 0
-359 -55 0
-359 -92 0
359 54 -81 -121 55 92 0
-360 -156 0
-360 128 0
-360 50 0
-360 186 0
-360 -73 0
360 156 -128 -50 -186 73 0
356 357 358 359 360 0
-361 -96 0
-361 143 0
-361 -154 0
-361 141 0
-361 -16 0
361 96 -143 154 -141 16 0
-362 66 0
-362 34 0
-362 143 0
-362 -3 0
-362 121 0
362 -66 -34 -143 3 -121 0
-363 13 0
-363 -120 0
-363 75 0
-363 -91 0
-363 -129 0
363 -13 120 -75 91 129 0
-364 54 0
-364 -158 0
-364 15 0
-364 -22 0
-364 -39 0
364 -54 158 -15 22 39 0
-365 -53 0
-365 49 0
-365 -102 0
-365 60 0
-365 89 0
365 53 -49 102 -60 -89 0
361 362 363 364 365 0
-366 -131 0
-366 170 0
-366 163 0
-366 -94 0
-366 157 0
366 131 -170 -163 94 -157 0
-367 2 0
-367 93 0
-367 123 0
-367 -187 0
-367 -110 0
367 -2 -93 -123 187 110 0
-368 112 0
-368 -16 0
-368 55 0
-368 83 0
-368 -9 0
368 -112 16 -55 -83 9 0
-369 -116 0
-369 -174 0
-369 -138 0
-369 -85 0
-369 -46 0
369 116 174 138 85 46 0
-370 -109 0
-370 2 0
-370 158 0
-370 99 0
-370 56 0
370 109 -2 -158 -99 -56 0
366 367 368 369 370 0
-371 32 0
-371 -90 0
-371 189 0
-371 185 0
-371 53 0
371 -32 90 -189 -185 -53 0
-372 -15 0
-372 -9 0
-372 12 0
-372 -84 0
-372 68 0
372 15 9 -12 84 -68 0
-373 52 0
-373 -134 0
-373 -2 0
-373 -183 0
-373 83 0
373 -52 134 2 183 -83 0
-374 -127 0
-374 -16 0
-374 -79 0
-374 101 0
-374 161 0
374 127 16 79 -101 -161 0
-375 67 0
-375 -116 0
-375 15 0
-375 78 0
-375 42 0
375 -67 116 -15 -78 -42 0
371 372 373 374 375 0
-376 137 0
-376 -33 0
-376 -117 0
-376 24 0
-376 -45 0
376 -137 33 117 -24 45 0
-377 -40 0
-377 -132 0
-377 180 0
-377 -168 0
-377 -176 0
377 40 132 -180 168 176 0
-378 9 0
-378 150 0
-378 -157 0
-378 -2 0
-378 79 0
378 -9 -150 157 2 -79 0
-379 142 0
-379 151 0
-379 -176 0
-379 -98 0
-379 -54 0
379 -142 -151 176 98 54 0
-380 21 0
-380 28 0
-380 -110 0
-380 -127 0
-380 7 0
380 -21 -28 110 127 -7 0
376 377 378 379 380 0
-381 92 0
-381 -6 0
-381 37 0
-381 -174 0
-381 -45 0
381 -92 6 -37 174 45 0
-382 -90 0
-382 71 0
-382 -106 0
-382 79 0
-382 17 0
382 90 -71 106 -79 -17 0
-383 -3 0
-383 -2 0
-383 -163 0
-383 146 0
-383 52 0
383 3 2 163 -146 -52 0
-384 44 0
-384 112 0
-384 76 0
-384 -32 0
-384 -11 0
384 -44 -112 -76 32 11 0
-385 -32 0
-385 -45 0
-385 -7 0
-385 116 0
-385 182 0
385 32 45 7 -116 -182 0
381 382 383 384 385 0
-386 -161 0
-386 -115 0
-386 -64 0
-386 66 0
-386 146 0
386 161 115 64 -66 -146 0
-387 104 0
-387 -54 0
-387 133 0
-387 -73 0
-387 -158 0
387 -104 54 -133 73 158 0
-388 -184 0
-388 -172 0
-388 10 0
-388 3 0
-388 142 0
388 184 172 -10 -3 -142 0
-389 -145 0
-389 -60 0
-389 -154 0
-389 -188 0
-389 -6 0
389 145 60 154 188 6 0
-390 155 0
-390 -147 0
-390 -153 0
-390 -115 0
-390 161 0
390 -155 147 153 115 -161 0
386 387 388 389 390 0
-391 -54 0
-391 -110 0
-391 -113 0
-391 -131 0
-391 -174 0
391 54 110 113 131 174 0
-392 -43 0
-392 -84 0
-392 66 0
-392 71 0
-392 -165 0
392 43 84 -66 -71 165 0
-393 130 0
-393 -54 0
-393 -156 0
-393 -33 0
-393 -146 0
393 -130 54 156 33 146 0
-394 86 0
-394 -131 0
-394 -104 0
-394 93 0
-394 142 0
394 -86 131 104 -93 -142 0
-395 155 0
-395 169 0
-395 -112 0
-395 140 0
-395 -96 0
395 -155 -169 112 -140 96 0
391 392 393 394 395 0
-396 -16 0
-396 173 0
-396 164 0
-396 31 0
-396 113 0
396 16 -173 -164 -31 -113 0
-397 50 0
-397 -85 0
-397 74 0
-397 -134 0
-397 -94 0
397 -50 85 -74 134 94 0
-398 -55 0
-398 -185 0
-398 110 0
-398 -38 0
-398 3 0
398 55 185 -110 38 -3 0
-399 89 0
-399 117 0
-399 134 0
-399 45 0
-399 -188 0
399 -89 -117 -134 -45 188 0
-400 -27 0
-400 -2 0
-400 -50 0
-400 -175 0
-400 80 0
400 27 2 50 175 -80 0
396 397 398 399 400 0
-401 77 0
-401 182 0
-401 177 0
-401 71 0
-401 -3 0
401 -77 -182 -177 -71 3 0
-402 -82 0
-402 171 0
-402 70 0
-402 -172 0
-402 141 0
402 82 -171 -70 172 -141 0
-403 183 0
-403 -92 0
-403 174 0
-403 43 0
-403 56 0
403 -183 92 -174 -43 -56 0
-404 -28 0
-404 -175 0
-404 30 0
-404 -29 0
-404 41 0
404 28 175 -30 29 -41 0
-405 10 0
-405 -70 0
-405 -88 0
-405 173 0
-405 -41 0
405 -10 70 88 -173 41 0
401 402 403 404 405 0
-406 31 0
-406 98 0
-406 -105 0
-406 177 0
-406 137 0
406 -31 -98 105 -177 -137 0
-407 58 0
-407 -93 0
-407 148 0
-407 66 0
-407 -85 0
407 -58 93 -148 -66 85 0
-408 -47 0
-408 43 0
-408 30 0
-408 -65 0
-408 90 0
408 47 -43 -30 65 -90 0
-409 -21 0
-409 -187 0
-409 -170 0
-409 51 0
-409 -128 0
409 21 187 170 -51 128 0
-410 -146 0
-410 -52 0
-410 -6 0
-410 -131 0
-410 130 0
410 146 52 6 131 -130 0
406 407 408 409 410 0
-411 -161 0
-411 -88 0
-411 -173 0
-411 102 0
-411 -139 0
411 161 88 173 -102 139 0
-412 -122 0
-412 73 0
-412 -37 0
-412 133 0
-412 20 0
412 122 -73 37 -133 -20 0
-413 -36 0
-413 -151 0
-413 4 0
-413 175 0
-413 95 0
413 36 151 -4 -175 -95 0
-414 -136 0
-414 45 0
-414 -93 0
-414 -156 0
-414 -134 0
414 136 -45 93 156 134 0
-415 -145 0
-415 41 0
-415 190 0
-415 -7 0
-415 171 0
415 145 -41 -190 7 -171 0
411 412 413 414 415 0
-416 49 0
-416 -122 0
-416 110 0
-416 -167 0
-416 -157 0
416 -49 122 -110 167 157 0
-417 -181 0
-417 161 0
-417 91 0
-417 94 0
-417 39 0
417 181 -161 -91 -94 -39 0
-418 -7 0
-418 -87 0
-418 -90 0
-418 181 0
-418 135 0
418 7 87 90 -181 -135 0
-419 3 0
-419 -104 0
-419 121 0
-419 -35 0
-419 89 0
419 -3 104 -121 35 -89 0
-420 -132 0
-420 84 0
-420 181 0
-420 -145 0
-420 -138 0
420 132 -84 -181 145 138 0
416 417 418 419 420 0
-421 -15 0
-421 118 0
-421 168 0
-421 -128 0
-421 90 0
421 15 -118 -168 128 -90 0
-422 -125 0
-422 -110 0
-422 150 0
-422 107 0
-422 87 0
422 125 110 -150 -107 -87 0
-423 -188 0
-423 -42 0
-423 145 0
-423 -24 0
-423 -88 0
423 188 42 -145 24 88 0
-424 -175 0
-424 -151 0
-424 119 0
-424 146 0
-424 -145 0
424 175 151 -119 -146 145 0
-425 142 0
-425 -189 0
-425 -168 0
-425 -182 0
-425 -115 0
425 -142 189 168 182 115 0
421 422 423 424 425 0
-426 139 0
-426 29 0
-426 133 0
-426 -30 0
-426 180 0
426 -139 -29 -133 30 -180 0
-427 91 0
-427 -135 0
-427 12 0
-427 50 0
-427 -138 0
427 -91 135 -12 -50 138 0
-428 164 0
-428 -186 0
-428 129 0
-428 -180 0
-428 25 0
428 -164 186 -129 180 -25 0
-429 133 0
-429 -30 0
-429 72 0
-429 17 0
-429 176 0
429 -133 30 -72 -17 -176 0
-430 -153 0
-430 169 0
-430 -140 0
-430 189 0
-430 -79 0
430 153 -169 140 -189 79 0
426 427 428 429 430 0
